Welcome to the CBC MILP Solver 
Version: 2.10.7 
Build Date: Feb 14 2022 

command line - cbc new_inputs_trans/order/dag39_down_left_input.lp sec 1800 solve solu transitive/dag39_down_left_input.lp (default strategy 1)
seconds was changed from 1e+100 to 1800
Continuous objective value is 917504 - 0.52 seconds
Cgl0002I 1551 variables fixed
Cgl0003I 0 fixed, 1 tightened bounds, 1301 strengthened rows, 0 substitutions
Cgl0003I 0 fixed, 0 tightened bounds, 111 strengthened rows, 0 substitutions
Cgl0003I 0 fixed, 0 tightened bounds, 5 strengthened rows, 0 substitutions
Cgl0004I processed model has 6858 rows, 2264 columns (2264 integer (2209 of which binary)) and 22743 elements
Cutoff increment increased from 1e-05 to 0.9999
Cbc0045I 1 integer variables out of 2264 objects (2264 integer) have cost of 1 - high priority
Cbc0045I branch on satisfied Y create fake objective Y random cost Y
Cbc0038I Initial state - 760 integers unsatisfied sum - 197.849
Cbc0038I Pass   1: (2.94 seconds) suminf.  100.39737 (634) obj. 1.11832e+06 iterations 2522
Cbc0038I Pass   2: (3.08 seconds) suminf.   89.71242 (589) obj. 1.14396e+06 iterations 474
Cbc0038I Pass   3: (3.15 seconds) suminf.   85.02131 (597) obj. 1.145e+06 iterations 205
Cbc0038I Pass   4: (3.24 seconds) suminf.   80.01113 (584) obj. 1.14895e+06 iterations 286
Cbc0038I Pass   5: (3.25 seconds) suminf.   80.26608 (583) obj. 1.14895e+06 iterations 3
Cbc0038I Pass   6: (3.30 seconds) suminf.   78.75395 (584) obj. 1.15228e+06 iterations 135
Cbc0038I Pass   7: (3.32 seconds) suminf.   78.67465 (577) obj. 1.15103e+06 iterations 56
Cbc0038I Pass   8: (3.34 seconds) suminf.   78.63322 (575) obj. 1.15099e+06 iterations 15
Cbc0038I Pass   9: (3.40 seconds) suminf.   74.62793 (563) obj. 1.15713e+06 iterations 180
Cbc0038I Pass  10: (3.43 seconds) suminf.   74.61232 (562) obj. 1.15657e+06 iterations 90
Cbc0038I Pass  11: (3.54 seconds) suminf.   72.26531 (534) obj. 1.14515e+06 iterations 341
Cbc0038I Pass  12: (3.58 seconds) suminf.   72.50372 (538) obj. 1.13919e+06 iterations 121
Cbc0038I Pass  13: (3.61 seconds) suminf.   71.25320 (537) obj. 1.1348e+06 iterations 94
Cbc0038I Pass  14: (3.72 seconds) suminf.   68.54257 (520) obj. 1.13757e+06 iterations 338
Cbc0038I Pass  15: (3.77 seconds) suminf.   67.15740 (502) obj. 1.14144e+06 iterations 153
Cbc0038I Pass  16: (3.84 seconds) suminf.   64.63712 (503) obj. 1.13965e+06 iterations 200
Cbc0038I Pass  17: (3.86 seconds) suminf.   65.20672 (502) obj. 1.14019e+06 iterations 74
Cbc0038I Pass  18: (3.89 seconds) suminf.   64.60517 (500) obj. 1.14042e+06 iterations 81
Cbc0038I Pass  19: (3.91 seconds) suminf.   64.04182 (509) obj. 1.14004e+06 iterations 35
Cbc0038I Pass  20: (4.01 seconds) suminf.   60.54001 (479) obj. 1.1489e+06 iterations 335
Cbc0038I Pass  21: (4.06 seconds) suminf.   58.25428 (487) obj. 1.15208e+06 iterations 162
Cbc0038I Pass  22: (4.08 seconds) suminf.   56.92139 (472) obj. 1.15167e+06 iterations 44
Cbc0038I Pass  23: (4.09 seconds) suminf.   57.63288 (472) obj. 1.15303e+06 iterations 7
Cbc0038I Pass  24: (4.23 seconds) suminf.   48.91811 (445) obj. 1.16087e+06 iterations 570
Cbc0038I Pass  25: (4.26 seconds) suminf.   48.03029 (445) obj. 1.1716e+06 iterations 111
Cbc0038I Pass  26: (4.36 seconds) suminf.   44.17777 (426) obj. 1.20366e+06 iterations 356
Cbc0038I Pass  27: (4.42 seconds) suminf.   43.35259 (430) obj. 1.20411e+06 iterations 206
Cbc0038I Pass  28: (4.51 seconds) suminf.   42.35501 (417) obj. 1.20383e+06 iterations 308
Cbc0038I Pass  29: (4.59 seconds) suminf.   40.67361 (398) obj. 1.20273e+06 iterations 257
Cbc0038I Pass  30: (4.65 seconds) suminf.   41.22133 (390) obj. 1.20395e+06 iterations 207
Cbc0038I Pass  31: (4.71 seconds) suminf.   40.40022 (394) obj. 1.204e+06 iterations 198
Cbc0038I Pass  32: (4.82 seconds) suminf.   35.99253 (371) obj. 1.39632e+06 iterations 434
Cbc0038I Pass  33: (4.84 seconds) suminf.   34.49447 (377) obj. 1.39684e+06 iterations 85
Cbc0038I Pass  34: (4.98 seconds) suminf.   29.53810 (319) obj. 1.39361e+06 iterations 568
Cbc0038I Pass  35: (5.03 seconds) suminf.   28.58981 (325) obj. 1.39359e+06 iterations 177
Cbc0038I Pass  36: (5.09 seconds) suminf.   28.95961 (334) obj. 1.39075e+06 iterations 229
Cbc0038I Pass  37: (5.13 seconds) suminf.   27.11627 (322) obj. 1.38994e+06 iterations 120
Cbc0038I Pass  38: (5.22 seconds) suminf.   26.20328 (323) obj. 1.38767e+06 iterations 333
Cbc0038I Pass  39: (5.25 seconds) suminf.   25.06739 (324) obj. 1.38716e+06 iterations 117
Cbc0038I Pass  40: (5.41 seconds) suminf.   28.02860 (308) obj. 1.33411e+06 iterations 744
Cbc0038I Pass  41: (5.45 seconds) suminf.   23.47295 (298) obj. 1.33169e+06 iterations 148
Cbc0038I Pass  42: (5.56 seconds) suminf.   23.73559 (303) obj. 1.32148e+06 iterations 496
Cbc0038I Pass  43: (5.59 seconds) suminf.   19.39818 (301) obj. 1.32347e+06 iterations 69
Cbc0038I Pass  44: (5.68 seconds) suminf.   19.24775 (249) obj. 1.32839e+06 iterations 416
Cbc0038I Pass  45: (5.70 seconds) suminf.   19.01421 (256) obj. 1.32352e+06 iterations 65
Cbc0038I Pass  46: (5.76 seconds) suminf.   17.12386 (251) obj. 1.32387e+06 iterations 259
Cbc0038I Pass  47: (5.78 seconds) suminf.   15.43925 (242) obj. 1.32459e+06 iterations 51
Cbc0038I Pass  48: (5.85 seconds) suminf.   14.83121 (240) obj. 1.32762e+06 iterations 291
Cbc0038I Pass  49: (5.86 seconds) suminf.   14.74051 (239) obj. 1.32762e+06 iterations 8
Cbc0038I Pass  50: (5.95 seconds) suminf.   15.47913 (245) obj. 1.32346e+06 iterations 397
Cbc0038I Pass  51: (5.97 seconds) suminf.   14.90379 (247) obj. 1.32346e+06 iterations 85
Cbc0038I Pass  52: (6.06 seconds) suminf.   13.80109 (215) obj. 1.32476e+06 iterations 419
Cbc0038I Pass  53: (6.09 seconds) suminf.   14.72240 (222) obj. 1.32455e+06 iterations 121
Cbc0038I Pass  54: (6.10 seconds) suminf.   13.78213 (218) obj. 1.32475e+06 iterations 7
Cbc0038I Pass  55: (6.17 seconds) suminf.   12.47939 (233) obj. 1.32313e+06 iterations 317
Cbc0038I Pass  56: (6.20 seconds) suminf.   11.36759 (223) obj. 1.32312e+06 iterations 81
Cbc0038I Pass  57: (6.28 seconds) suminf.   11.33302 (211) obj. 1.2192e+06 iterations 398
Cbc0038I Pass  58: (6.30 seconds) suminf.   10.30252 (207) obj. 1.21906e+06 iterations 105
Cbc0038I Pass  59: (6.31 seconds) suminf.   10.30252 (207) obj. 1.21906e+06 iterations 9
Cbc0038I Pass  60: (6.36 seconds) suminf.   14.38617 (224) obj. 1.21933e+06 iterations 214
Cbc0038I Pass  61: (6.39 seconds) suminf.   12.43553 (229) obj. 1.21934e+06 iterations 86
Cbc0038I Pass  62: (6.47 seconds) suminf.   11.63688 (191) obj. 1.21907e+06 iterations 432
Cbc0038I Pass  63: (6.53 seconds) suminf.   10.34327 (175) obj. 1.21905e+06 iterations 265
Cbc0038I Pass  64: (6.61 seconds) suminf.   11.33701 (233) obj. 1.22872e+06 iterations 394
Cbc0038I Pass  65: (6.63 seconds) suminf.   11.11215 (221) obj. 1.22516e+06 iterations 45
Cbc0038I Pass  66: (6.70 seconds) suminf.    9.98107 (184) obj. 1.21711e+06 iterations 318
Cbc0038I Pass  67: (6.72 seconds) suminf.    8.53824 (177) obj. 1.21748e+06 iterations 60
Cbc0038I Pass  68: (6.73 seconds) suminf.    8.53824 (177) obj. 1.21748e+06 iterations 1
Cbc0038I Pass  69: (6.79 seconds) suminf.    6.74970 (169) obj. 1.21908e+06 iterations 304
Cbc0038I Pass  70: (6.82 seconds) suminf.    7.08383 (178) obj. 1.21914e+06 iterations 89
Cbc0038I Pass  71: (6.91 seconds) suminf.   10.00095 (129) obj. 1.21818e+06 iterations 407
Cbc0038I Pass  72: (7.02 seconds) suminf.    3.65476 (95) obj. 1.21579e+06 iterations 507
Cbc0038I Pass  73: (7.37 seconds) suminf.    0.29468 (26) obj. 1.09773e+06 iterations 1877
Cbc0038I Pass  74: (7.38 seconds) suminf.    0.29468 (26) obj. 1.09773e+06 iterations 6
Cbc0038I Pass  75: (7.42 seconds) suminf.    2.03629 (37) obj. 1.09773e+06 iterations 207
Cbc0038I Pass  76: (7.43 seconds) suminf.    0.36868 (29) obj. 1.09773e+06 iterations 17
Cbc0038I Pass  77: (7.51 seconds) suminf.    2.65471 (35) obj. 1.09773e+06 iterations 483
Cbc0038I Pass  78: (7.52 seconds) suminf.    1.22828 (37) obj. 1.09773e+06 iterations 9
Cbc0038I Pass  79: (7.57 seconds) suminf.    1.95233 (16) obj. 1.11272e+06 iterations 271
Cbc0038I Pass  80: (7.58 seconds) suminf.    0.00000 (0) obj. 1.11411e+06 iterations 25
Cbc0038I Solution found of 1.11411e+06
Cbc0038I Cleaned solution of 1.11411e+06
Cbc0038I Before mini branch and bound, 1014 integers at bound fixed and 0 continuous
Cbc0038I Mini branch and bound did not improve solution (7.64 seconds)
Cbc0038I Round again with cutoff of 1.09445e+06
Cbc0038I Reduced cost fixing fixed 10 variables on major pass 2
Cbc0038I Pass  81: (7.66 seconds) suminf.  100.20698 (641) obj. 1.09445e+06 iterations 51
Cbc0038I Pass  82: (7.82 seconds) suminf.   88.50589 (641) obj. 1.09445e+06 iterations 636
Cbc0038I Pass  83: (7.88 seconds) suminf.   86.58874 (638) obj. 1.09445e+06 iterations 185
Cbc0038I Pass  84: (7.93 seconds) suminf.   82.08626 (615) obj. 1.09445e+06 iterations 135
Cbc0038I Pass  85: (7.94 seconds) suminf.   82.12200 (616) obj. 1.09445e+06 iterations 10
Cbc0038I Pass  86: (8.00 seconds) suminf.   80.49216 (584) obj. 1.09445e+06 iterations 176
Cbc0038I Pass  87: (8.02 seconds) suminf.   78.27951 (596) obj. 1.09445e+06 iterations 59
Cbc0038I Pass  88: (8.07 seconds) suminf.   78.66169 (568) obj. 1.09445e+06 iterations 111
Cbc0038I Pass  89: (8.12 seconds) suminf.   77.10966 (585) obj. 1.09445e+06 iterations 159
Cbc0038I Pass  90: (8.13 seconds) suminf.   77.45802 (581) obj. 1.09445e+06 iterations 17
Cbc0038I Pass  91: (8.20 seconds) suminf.   75.95122 (573) obj. 1.09445e+06 iterations 234
Cbc0038I Pass  92: (8.23 seconds) suminf.   74.94278 (572) obj. 1.09445e+06 iterations 68
Cbc0038I Pass  93: (8.24 seconds) suminf.   75.00960 (570) obj. 1.09445e+06 iterations 10
Cbc0038I Pass  94: (8.34 seconds) suminf.   73.26907 (569) obj. 1.09445e+06 iterations 343
Cbc0038I Pass  95: (8.35 seconds) suminf.   72.82594 (565) obj. 1.09445e+06 iterations 19
Cbc0038I Pass  96: (8.48 seconds) suminf.   68.00144 (520) obj. 1.09445e+06 iterations 462
Cbc0038I Pass  97: (8.51 seconds) suminf.   66.04325 (513) obj. 1.09445e+06 iterations 82
Cbc0038I Pass  98: (8.62 seconds) suminf.   60.63281 (480) obj. 1.09445e+06 iterations 461
Cbc0038I Pass  99: (8.66 seconds) suminf.   61.16076 (490) obj. 1.09445e+06 iterations 130
Cbc0038I Pass 100: (8.73 seconds) suminf.   53.74758 (469) obj. 1.09445e+06 iterations 228
Cbc0038I Pass 101: (8.75 seconds) suminf.   53.74262 (466) obj. 1.09445e+06 iterations 47
Cbc0038I Pass 102: (8.84 seconds) suminf.   50.98862 (452) obj. 1.09445e+06 iterations 334
Cbc0038I Pass 103: (8.89 seconds) suminf.   49.35367 (441) obj. 1.09445e+06 iterations 183
Cbc0038I Pass 104: (9.01 seconds) suminf.   49.08032 (417) obj. 1.09445e+06 iterations 501
Cbc0038I Pass 105: (9.04 seconds) suminf.   48.19594 (442) obj. 1.09445e+06 iterations 127
Cbc0038I Pass 106: (9.07 seconds) suminf.   47.75997 (439) obj. 1.09445e+06 iterations 96
Cbc0038I Pass 107: (9.18 seconds) suminf.   44.35086 (416) obj. 1.09445e+06 iterations 469
Cbc0038I Pass 108: (9.26 seconds) suminf.   43.63315 (425) obj. 1.09445e+06 iterations 316
Cbc0038I Pass 109: (9.28 seconds) suminf.   43.40099 (421) obj. 1.09445e+06 iterations 20
Cbc0038I Pass 110: (9.42 seconds) suminf.   40.50553 (380) obj. 1.09445e+06 iterations 639
Cbc0038I Pass 111: (9.44 seconds) suminf.   39.24495 (382) obj. 1.09445e+06 iterations 63
Cbc0038I Pass 112: (9.45 seconds) suminf.   38.65024 (383) obj. 1.09445e+06 iterations 6
Cbc0038I Pass 113: (9.57 seconds) suminf.   37.09271 (388) obj. 1.09445e+06 iterations 529
Cbc0038I Pass 114: (9.60 seconds) suminf.   36.95512 (389) obj. 1.09445e+06 iterations 110
Cbc0038I Pass 115: (9.70 seconds) suminf.   32.61522 (371) obj. 1.09445e+06 iterations 363
Cbc0038I Pass 116: (9.71 seconds) suminf.   32.42583 (371) obj. 1.09445e+06 iterations 27
Cbc0038I Pass 117: (9.79 seconds) suminf.   30.59925 (348) obj. 1.09445e+06 iterations 279
Cbc0038I Pass 118: (9.81 seconds) suminf.   27.59527 (351) obj. 1.09445e+06 iterations 92
Cbc0038I Pass 119: (9.82 seconds) suminf.   27.55151 (350) obj. 1.09445e+06 iterations 7
Cbc0038I Pass 120: (9.90 seconds) suminf.   26.24057 (340) obj. 1.09445e+06 iterations 299
Cbc0038I Pass 121: (9.93 seconds) suminf.   26.02392 (345) obj. 1.09445e+06 iterations 86
Cbc0038I Pass 122: (10.00 seconds) suminf.   21.22942 (315) obj. 1.09445e+06 iterations 307
Cbc0038I Pass 123: (10.02 seconds) suminf.   20.96702 (312) obj. 1.09445e+06 iterations 82
Cbc0038I Pass 124: (10.09 seconds) suminf.   17.47769 (284) obj. 1.09445e+06 iterations 269
Cbc0038I Pass 125: (10.12 seconds) suminf.   16.52104 (281) obj. 1.09445e+06 iterations 122
Cbc0038I Pass 126: (10.25 seconds) suminf.   21.60480 (303) obj. 1.09445e+06 iterations 604
Cbc0038I Pass 127: (10.27 seconds) suminf.   20.78374 (308) obj. 1.09445e+06 iterations 57
Cbc0038I Pass 128: (10.41 seconds) suminf.   23.87029 (265) obj. 1.09445e+06 iterations 707
Cbc0038I Pass 129: (10.50 seconds) suminf.   15.18601 (232) obj. 1.09445e+06 iterations 398
Cbc0038I Pass 130: (10.58 seconds) suminf.   11.09581 (212) obj. 1.09445e+06 iterations 446
Cbc0038I Pass 131: (10.61 seconds) suminf.   10.14402 (210) obj. 1.09445e+06 iterations 129
Cbc0038I Pass 132: (10.66 seconds) suminf.   14.31670 (191) obj. 1.09445e+06 iterations 267
Cbc0038I Pass 133: (10.69 seconds) suminf.   12.12280 (198) obj. 1.09445e+06 iterations 131
Cbc0038I Pass 134: (10.77 seconds) suminf.    9.13445 (188) obj. 1.09445e+06 iterations 449
Cbc0038I Pass 135: (10.78 seconds) suminf.    9.13445 (188) obj. 1.09445e+06 iterations 31
Cbc0038I Pass 136: (10.85 seconds) suminf.    5.19675 (142) obj. 1.09445e+06 iterations 333
Cbc0038I Pass 137: (10.86 seconds) suminf.    5.19675 (142) obj. 1.09445e+06 iterations 2
Cbc0038I Pass 138: (10.98 seconds) suminf.   10.07510 (141) obj. 1.09445e+06 iterations 734
Cbc0038I Pass 139: (11.00 seconds) suminf.    8.68353 (141) obj. 1.09445e+06 iterations 72
Cbc0038I Pass 140: (11.10 seconds) suminf.   11.25254 (151) obj. 1.09445e+06 iterations 537
Cbc0038I Pass 141: (11.17 seconds) suminf.    8.30627 (148) obj. 1.09445e+06 iterations 380
Cbc0038I Pass 142: (11.26 seconds) suminf.    6.25728 (98) obj. 1.09445e+06 iterations 543
Cbc0038I Pass 143: (11.28 seconds) suminf.    6.01516 (112) obj. 1.09445e+06 iterations 99
Cbc0038I Pass 144: (11.46 seconds) suminf.    6.74229 (70) obj. 1.09445e+06 iterations 879
Cbc0038I Pass 145: (11.49 seconds) suminf.    5.18262 (83) obj. 1.09445e+06 iterations 184
Cbc0038I Pass 146: (11.59 seconds) suminf.    3.62204 (57) obj. 1.09445e+06 iterations 416
Cbc0038I Pass 147: (11.61 seconds) suminf.    1.40322 (25) obj. 1.09445e+06 iterations 103
Cbc0038I Pass 148: (11.72 seconds) suminf.    3.75070 (33) obj. 1.09445e+06 iterations 538
Cbc0038I Pass 149: (11.74 seconds) suminf.    1.34934 (38) obj. 1.09445e+06 iterations 56
Cbc0038I Pass 150: (12.08 seconds) suminf.    5.95299 (69) obj. 1.09445e+06 iterations 2272
Cbc0038I Pass 151: (12.36 seconds) suminf.    3.78203 (26) obj. 1.09445e+06 iterations 1556
Cbc0038I Pass 152: (12.37 seconds) suminf.    1.98743 (26) obj. 1.09445e+06 iterations 48
Cbc0038I Pass 153: (12.39 seconds) suminf.    1.78592 (27) obj. 1.09445e+06 iterations 72
Cbc0038I Pass 154: (12.42 seconds) suminf.    3.93257 (27) obj. 1.09445e+06 iterations 233
Cbc0038I Pass 155: (12.48 seconds) suminf.    1.35003 (60) obj. 1.09445e+06 iterations 304
Cbc0038I Pass 156: (12.81 seconds) suminf.    4.80154 (61) obj. 1.09445e+06 iterations 1890
Cbc0038I Pass 157: (13.23 seconds) suminf.    3.26694 (57) obj. 1.09445e+06 iterations 2367
Cbc0038I Pass 158: (13.27 seconds) suminf.    2.93452 (60) obj. 1.09445e+06 iterations 146
Cbc0038I Pass 159: (13.31 seconds) suminf.    7.08593 (72) obj. 1.09445e+06 iterations 267
Cbc0038I Pass 160: (13.34 seconds) suminf.    4.04671 (69) obj. 1.09445e+06 iterations 126
Cbc0038I Pass 161: (13.38 seconds) suminf.    2.48674 (55) obj. 1.09445e+06 iterations 181
Cbc0038I Pass 162: (13.40 seconds) suminf.    1.79702 (57) obj. 1.09445e+06 iterations 73
Cbc0038I Pass 163: (13.47 seconds) suminf.    6.39313 (81) obj. 1.09445e+06 iterations 422
Cbc0038I Pass 164: (13.48 seconds) suminf.    6.77497 (82) obj. 1.09445e+06 iterations 31
Cbc0038I Pass 165: (13.52 seconds) suminf.    3.03463 (57) obj. 1.09445e+06 iterations 241
Cbc0038I Pass 166: (13.53 seconds) suminf.    1.59703 (50) obj. 1.09445e+06 iterations 22
Cbc0038I Pass 167: (13.61 seconds) suminf.    4.77834 (49) obj. 1.09445e+06 iterations 400
Cbc0038I Pass 168: (13.63 seconds) suminf.    2.22794 (50) obj. 1.09445e+06 iterations 56
Cbc0038I Pass 169: (13.72 seconds) suminf.    6.74212 (84) obj. 1.09445e+06 iterations 480
Cbc0038I Pass 170: (13.75 seconds) suminf.    4.31516 (48) obj. 1.09445e+06 iterations 164
Cbc0038I Pass 171: (13.76 seconds) suminf.    4.31516 (48) obj. 1.09445e+06 iterations 0
Cbc0038I Pass 172: (13.90 seconds) suminf.    2.28059 (33) obj. 1.09445e+06 iterations 642
Cbc0038I Pass 173: (13.91 seconds) suminf.    2.28059 (33) obj. 1.09445e+06 iterations 3
Cbc0038I Pass 174: (13.97 seconds) suminf.    2.21787 (54) obj. 1.09445e+06 iterations 273
Cbc0038I Pass 175: (13.98 seconds) suminf.    2.63528 (56) obj. 1.09445e+06 iterations 37
Cbc0038I Pass 176: (14.17 seconds) suminf.    5.98725 (50) obj. 1.09445e+06 iterations 906
Cbc0038I Pass 177: (14.19 seconds) suminf.    5.59553 (43) obj. 1.09445e+06 iterations 52
Cbc0038I Pass 178: (14.21 seconds) suminf.    3.29361 (40) obj. 1.09445e+06 iterations 125
Cbc0038I Pass 179: (14.23 seconds) suminf.    1.13536 (21) obj. 1.09445e+06 iterations 57
Cbc0038I Pass 180: (14.52 seconds) suminf.   70.00203 (394) obj. 1.09445e+06 iterations 1526
Cbc0038I No solution found this major pass
Cbc0038I Before mini branch and bound, 930 integers at bound fixed and 0 continuous
Cbc0038I Mini branch and bound did not improve solution (14.54 seconds)
Cbc0038I After 14.54 seconds - Feasibility pump exiting with objective of 1.11411e+06 - took 12.26 seconds
Cbc0012I Integer solution of 1114112 found by feasibility pump after 0 iterations and 0 nodes (14.54 seconds)
Cbc0038I Full problem 6858 rows 2264 columns, reduced to 963 rows 266 columns
Cbc0031I 75 added rows had average density of 4.6
Cbc0013I At root node, 75 cuts changed objective from 917504 to 917504 in 10 passes
Cbc0014I Cut generator 0 (Probing) - 468 row cuts average 2.8 elements, 55 column cuts (55 active)  in 0.208 seconds - new frequency is 1
Cbc0014I Cut generator 1 (Gomory) - 22 row cuts average 5.9 elements, 0 column cuts (0 active)  in 0.795 seconds - new frequency is 1
Cbc0014I Cut generator 2 (Knapsack) - 11 row cuts average 18.4 elements, 0 column cuts (0 active)  in 0.026 seconds - new frequency is 1
Cbc0014I Cut generator 3 (Clique) - 0 row cuts average 0.0 elements, 0 column cuts (0 active)  in 0.020 seconds - new frequency is -100
Cbc0014I Cut generator 4 (MixedIntegerRounding2) - 0 row cuts average 0.0 elements, 0 column cuts (0 active)  in 0.025 seconds - new frequency is -100
Cbc0014I Cut generator 5 (FlowCover) - 0 row cuts average 0.0 elements, 0 column cuts (0 active)  in 0.020 seconds - new frequency is -100
Cbc0014I Cut generator 6 (TwoMirCuts) - 126 row cuts average 3.7 elements, 0 column cuts (0 active)  in 0.370 seconds - new frequency is -100
Cbc0010I After 0 nodes, 1 on tree, 1114112 best solution, best possible 917504 (20.39 seconds)
Cbc0038I Full problem 6858 rows 2264 columns, reduced to 1543 rows 449 columns
Cbc0038I Full problem 6858 rows 2264 columns, reduced to 1659 rows 497 columns
Cbc0010I After 100 nodes, 16 on tree, 1114112 best solution, best possible 917504 (121.63 seconds)
Cbc0038I Full problem 6858 rows 2264 columns, reduced to 1455 rows 414 columns
Cbc0010I After 200 nodes, 21 on tree, 1114112 best solution, best possible 917504 (182.33 seconds)
Cbc0038I Full problem 6858 rows 2264 columns, reduced to 1250 rows 373 columns
Cbc0010I After 300 nodes, 43 on tree, 1114112 best solution, best possible 917504 (248.83 seconds)
Cbc0010I After 400 nodes, 58 on tree, 1114112 best solution, best possible 917504 (304.42 seconds)
Cbc0038I Full problem 6858 rows 2264 columns, reduced to 1239 rows 378 columns
Cbc0010I After 500 nodes, 58 on tree, 1114112 best solution, best possible 917504 (363.31 seconds)
Cbc0010I After 600 nodes, 62 on tree, 1114112 best solution, best possible 917504 (407.92 seconds)
Cbc0038I Full problem 6858 rows 2264 columns, reduced to 1224 rows 361 columns
Cbc0010I After 700 nodes, 54 on tree, 1114112 best solution, best possible 917504 (451.40 seconds)
Cbc0010I After 800 nodes, 56 on tree, 1114112 best solution, best possible 917504 (510.96 seconds)
Cbc0010I After 900 nodes, 62 on tree, 1114112 best solution, best possible 917504 (562.65 seconds)
Cbc0038I Full problem 6858 rows 2264 columns, reduced to 1487 rows 447 columns
Cbc0038I Full problem 6858 rows 2264 columns, reduced to 991 rows 287 columns
Cbc0010I After 1000 nodes, 72 on tree, 1114112 best solution, best possible 917504 (627.95 seconds)
Cbc0010I After 1100 nodes, 65 on tree, 1114112 best solution, best possible 917504 (669.63 seconds)
Cbc0010I After 1200 nodes, 62 on tree, 1114112 best solution, best possible 917504 (712.59 seconds)
Cbc0038I Full problem 6858 rows 2264 columns, reduced to 878 rows 259 columns
Cbc0010I After 1300 nodes, 69 on tree, 1114112 best solution, best possible 917504 (742.67 seconds)
Cbc0010I After 1400 nodes, 69 on tree, 1114112 best solution, best possible 917504 (774.65 seconds)
Cbc0010I After 1500 nodes, 70 on tree, 1114112 best solution, best possible 917504 (805.49 seconds)
Cbc0010I After 1600 nodes, 73 on tree, 1114112 best solution, best possible 917504 (837.90 seconds)
Cbc0010I After 1700 nodes, 62 on tree, 1114112 best solution, best possible 917504 (874.21 seconds)
Cbc0038I Full problem 6858 rows 2264 columns, reduced to 991 rows 286 columns
Cbc0010I After 1800 nodes, 54 on tree, 1114112 best solution, best possible 917504 (922.79 seconds)
Cbc0010I After 1900 nodes, 58 on tree, 1114112 best solution, best possible 917504 (974.37 seconds)
Cbc0010I After 2000 nodes, 44 on tree, 1114112 best solution, best possible 917504 (1045.65 seconds)
Cbc0010I After 2100 nodes, 36 on tree, 1114112 best solution, best possible 917504 (1105.00 seconds)
Cbc0010I After 2200 nodes, 35 on tree, 1114112 best solution, best possible 917504 (1159.24 seconds)
Cbc0010I After 2300 nodes, 33 on tree, 1114112 best solution, best possible 917504 (1230.95 seconds)
Cbc0010I After 2400 nodes, 41 on tree, 1114112 best solution, best possible 917504 (1276.74 seconds)
Cbc0010I After 2500 nodes, 55 on tree, 1114112 best solution, best possible 917504 (1301.62 seconds)
Cbc0010I After 2600 nodes, 47 on tree, 1114112 best solution, best possible 917504 (1311.08 seconds)
Cbc0010I After 2700 nodes, 53 on tree, 1114112 best solution, best possible 917504 (1322.77 seconds)
Cbc0010I After 2800 nodes, 43 on tree, 1114112 best solution, best possible 917504 (1331.05 seconds)
Cbc0010I After 2900 nodes, 62 on tree, 1114112 best solution, best possible 917504 (1345.37 seconds)
Cbc0010I After 3000 nodes, 59 on tree, 1114112 best solution, best possible 917504 (1360.88 seconds)
Cbc0038I Full problem 6858 rows 2264 columns, reduced to 1117 rows 327 columns
Cbc0010I After 3100 nodes, 61 on tree, 1114112 best solution, best possible 917504 (1374.18 seconds)
Cbc0010I After 3200 nodes, 58 on tree, 1114112 best solution, best possible 917504 (1383.58 seconds)
Cbc0010I After 3300 nodes, 56 on tree, 1114112 best solution, best possible 917504 (1393.31 seconds)
Cbc0010I After 3400 nodes, 50 on tree, 1114112 best solution, best possible 917504 (1405.61 seconds)
Cbc0010I After 3500 nodes, 54 on tree, 1114112 best solution, best possible 917504 (1416.17 seconds)
Cbc0010I After 3600 nodes, 49 on tree, 1114112 best solution, best possible 917504 (1428.47 seconds)
Cbc0010I After 3700 nodes, 51 on tree, 1114112 best solution, best possible 917504 (1438.49 seconds)
Cbc0010I After 3800 nodes, 59 on tree, 1114112 best solution, best possible 917504 (1449.65 seconds)
Cbc0010I After 3900 nodes, 51 on tree, 1114112 best solution, best possible 917504 (1462.71 seconds)
Cbc0010I After 4000 nodes, 53 on tree, 1114112 best solution, best possible 917504 (1475.56 seconds)
Cbc0010I After 4100 nodes, 56 on tree, 1114112 best solution, best possible 917504 (1483.93 seconds)
Cbc0038I Full problem 6858 rows 2264 columns, reduced to 844 rows 247 columns
Cbc0010I After 4200 nodes, 66 on tree, 1114112 best solution, best possible 917504 (1493.34 seconds)
Cbc0010I After 4300 nodes, 66 on tree, 1114112 best solution, best possible 917504 (1501.09 seconds)
Cbc0010I After 4400 nodes, 65 on tree, 1114112 best solution, best possible 917504 (1508.10 seconds)
Cbc0010I After 4500 nodes, 52 on tree, 1114112 best solution, best possible 917504 (1517.74 seconds)
Cbc0010I After 4600 nodes, 56 on tree, 1114112 best solution, best possible 917504 (1527.02 seconds)
Cbc0010I After 4700 nodes, 41 on tree, 1114112 best solution, best possible 917504 (1537.56 seconds)
Cbc0010I After 4800 nodes, 53 on tree, 1114112 best solution, best possible 917504 (1547.98 seconds)
Cbc0010I After 4900 nodes, 53 on tree, 1114112 best solution, best possible 917504 (1557.31 seconds)
Cbc0010I After 5000 nodes, 50 on tree, 1114112 best solution, best possible 917504 (1565.68 seconds)
Cbc0010I After 5100 nodes, 52 on tree, 1114112 best solution, best possible 917504 (1573.24 seconds)
Cbc0010I After 5200 nodes, 54 on tree, 1114112 best solution, best possible 917504 (1581.02 seconds)
Cbc0010I After 5300 nodes, 48 on tree, 1114112 best solution, best possible 917504 (1588.43 seconds)
Cbc0010I After 5400 nodes, 57 on tree, 1114112 best solution, best possible 917504 (1599.27 seconds)
Cbc0038I Full problem 6858 rows 2264 columns, reduced to 931 rows 275 columns
Cbc0010I After 5500 nodes, 55 on tree, 1114112 best solution, best possible 917504 (1609.07 seconds)
Cbc0010I After 5600 nodes, 56 on tree, 1114112 best solution, best possible 917504 (1619.86 seconds)
Cbc0010I After 5700 nodes, 56 on tree, 1114112 best solution, best possible 917504 (1625.41 seconds)
Cbc0010I After 5800 nodes, 58 on tree, 1114112 best solution, best possible 917504 (1633.84 seconds)
Cbc0010I After 5900 nodes, 57 on tree, 1114112 best solution, best possible 917504 (1641.40 seconds)
Cbc0010I After 6000 nodes, 59 on tree, 1114112 best solution, best possible 917504 (1649.16 seconds)
Cbc0010I After 6100 nodes, 53 on tree, 1114112 best solution, best possible 917504 (1657.36 seconds)
Cbc0010I After 6200 nodes, 54 on tree, 1114112 best solution, best possible 917504 (1668.81 seconds)
Cbc0010I After 6300 nodes, 56 on tree, 1114112 best solution, best possible 917504 (1678.62 seconds)
Cbc0010I After 6400 nodes, 56 on tree, 1114112 best solution, best possible 917504 (1686.13 seconds)
Cbc0010I After 6500 nodes, 54 on tree, 1114112 best solution, best possible 917504 (1696.12 seconds)
Cbc0010I After 6600 nodes, 49 on tree, 1114112 best solution, best possible 917504 (1706.38 seconds)
Cbc0038I Full problem 6858 rows 2264 columns, reduced to 1143 rows 342 columns
Cbc0010I After 6700 nodes, 54 on tree, 1114112 best solution, best possible 917504 (1717.51 seconds)
Cbc0010I After 6800 nodes, 52 on tree, 1114112 best solution, best possible 917504 (1726.60 seconds)
Cbc0010I After 6900 nodes, 50 on tree, 1114112 best solution, best possible 917504 (1734.58 seconds)
Cbc0010I After 7000 nodes, 61 on tree, 1114112 best solution, best possible 917504 (1741.16 seconds)
Cbc0010I After 7100 nodes, 59 on tree, 1114112 best solution, best possible 917504 (1747.96 seconds)
Cbc0038I Full problem 6858 rows 2264 columns, reduced to 938 rows 272 columns
Cbc0010I After 7200 nodes, 58 on tree, 1114112 best solution, best possible 917504 (1755.61 seconds)
Cbc0010I After 7300 nodes, 68 on tree, 1114112 best solution, best possible 917504 (1762.22 seconds)
Cbc0010I After 7400 nodes, 61 on tree, 1114112 best solution, best possible 917504 (1770.08 seconds)
Cbc0010I After 7500 nodes, 62 on tree, 1114112 best solution, best possible 917504 (1779.76 seconds)
Cbc0010I After 7600 nodes, 60 on tree, 1114112 best solution, best possible 917504 (1788.85 seconds)
Cbc0010I After 7700 nodes, 60 on tree, 1114112 best solution, best possible 917504 (1795.10 seconds)
Cbc0020I Exiting on maximum time
Cbc0005I Partial search - best objective 1114112 (best possible 917504), took 4196551 iterations and 7729 nodes (1799.08 seconds)
Cbc0032I Strong branching done 32982 times (2277094 iterations), fathomed 592 nodes and fixed 3564 variables
Cbc0035I Maximum depth 80, 9 variables fixed on reduced cost
Cuts at root node changed objective from 917504 to 917504
Probing was tried 1587 times and created 296399 cuts of which 0 were active after adding rounds of cuts (8.475 seconds)
Gomory was tried 846 times and created 1831 cuts of which 0 were active after adding rounds of cuts (5.292 seconds)
Knapsack was tried 846 times and created 4170 cuts of which 0 were active after adding rounds of cuts (1.734 seconds)
Clique was tried 10 times and created 0 cuts of which 0 were active after adding rounds of cuts (0.020 seconds)
MixedIntegerRounding2 was tried 10 times and created 0 cuts of which 0 were active after adding rounds of cuts (0.025 seconds)
FlowCover was tried 10 times and created 0 cuts of which 0 were active after adding rounds of cuts (0.020 seconds)
TwoMirCuts was tried 10 times and created 126 cuts of which 0 were active after adding rounds of cuts (0.370 seconds)
ZeroHalf was tried 1 times and created 0 cuts of which 0 were active after adding rounds of cuts (0.071 seconds)
ImplicationCuts was tried 21 times and created 60 cuts of which 0 were active after adding rounds of cuts (0.004 seconds)

Result - Stopped on time limit

Objective value:                1114112.00000000
Lower bound:                    917504.000
Gap:                            0.21
Enumerated nodes:               7729
Total iterations:               4196551
Time (CPU seconds):             1799.43
Time (Wallclock seconds):       1804.45

Total time (CPU seconds):       1799.47   (Wallclock seconds):       1804.49

